problems/csplib-prob110/ArmiesOfQueens-models/noch/O2/minion/model_2_1-07-solution000001.eprime-solution
language ESSENCE' 1.0

letting black_ExplicitVarSizeWithFlags_Flags be
        [true, true, true, true, true, true, false, false, false, false, false, false, false, false, false, false,
         false, false, false, false, false, false, false, false, false, false, false, false, false, false, false, false,
         false, false, false, false, false, false, false, false, false, false, false, false, false, false, false, false,
         false;
             int(1..49)]
letting black_ExplicitVarSizeWithFlags_Values_1 be
        [1, 1, 1, 1, 2, 2, 1, 1, 1, 1, 1, 1, 1, 1, 1, 1, 1, 1, 1, 1, 1, 1, 1, 1, 1, 1, 1, 1, 1, 1, 1, 1, 1, 1, 1, 1, 1,
         1, 1, 1, 1, 1, 1, 1, 1, 1, 1, 1, 1;
             int(1..49)]
letting black_ExplicitVarSizeWithFlags_Values_2 be
        [1, 2, 3, 5, 2, 3, 1, 1, 1, 1, 1, 1, 1, 1, 1, 1, 1, 1, 1, 1, 1, 1, 1, 1, 1, 1, 1, 1, 1, 1, 1, 1, 1, 1, 1, 1, 1,
         1, 1, 1, 1, 1, 1, 1, 1, 1, 1, 1, 1;
             int(1..49)]
letting white_ExplicitVarSizeWithMarker_Marker be 6
letting white_ExplicitVarSizeWithMarker_Values_1 be
        [3, 4, 5, 6, 7, 7, 1, 1, 1, 1, 1, 1, 1, 1, 1, 1, 1, 1, 1, 1, 1, 1, 1, 1, 1, 1, 1, 1, 1, 1, 1, 1, 1, 1, 1, 1, 1,
         1, 1, 1, 1, 1, 1, 1, 1, 1, 1, 1, 1;
             int(1..49)]
letting white_ExplicitVarSizeWithMarker_Values_2 be
        [6, 7, 4, 4, 4, 6, 1, 1, 1, 1, 1, 1, 1, 1, 1, 1, 1, 1, 1, 1, 1, 1, 1, 1, 1, 1, 1, 1, 1, 1, 1, 1, 1, 1, 1, 1, 1,
         1, 1, 1, 1, 1, 1, 1, 1, 1, 1, 1, 1;
             int(1..49)]
