problems/csplib-prob110/ArmiesOfQueens-models/noch/O2/minion/model_2_1-07-solution000001.solution
language Essence 1.3

letting black be {(1, 1), (1, 2), (1, 3), (1, 5), (2, 2), (2, 3)}
$ Visualisation for black
$ 1 1
$ 1 2
$ 1 3
$ 1 5
$ 2 2
$ 2 3

letting white be {(3, 6), (4, 7), (5, 4), (6, 4), (7, 4), (7, 6)}
$ Visualisation for white
$ 3 6
$ 4 7
$ 5 4
$ 6 4
$ 7 4
$ 7 6

